benchmark_instances/dzn_benchmark_instances/benchmark_instance_11-1.dzn
% Input: sequence of points
seq_points = [|5,1
              |6,1
              |8,1
              |9,1
              |2,2
              |3,2
              |4,2
              |5,2
              |6,2
              |7,2
              |9,2
              |10,2
              |2,3
              |3,3
              |4,3
              |7,3
              |8,3
              |9,3
              |10,3
              |1,4
              |3,4
              |6,4
              |7,4
              |9,4
              |1,5
              |3,5
              |6,5
              |7,5
              |2,6
              |3,6
              |4,6
              |5,6
              |8,6
              |9,6
              |1,7
              |2,7
              |3,7
              |4,7
              |5,7
              |7,7
              |8,7
              |9,7
              |10,7
              |4,8
              |5,8
              |7,8
              |9,8
              |10,8
              |1,9
              |3,9
              |5,9
              |8,9
              |3,10
              |4,10
              |8,10
              |9,10
              |11,0
              |11,6
              |11,8
              |11,11
              |0,3
              |0,4
              |0,6
              |0,7
              |0,11
              |0,0
             |];

num_points = 66;
