benchmark_instances/lp_benchmark_instances/benchmark_instance_11-1.lp
% Input: sequence of points
point(5,1).
point(6,1).
point(8,1).
point(9,1).
point(2,2).
point(3,2).
point(4,2).
point(5,2).
point(6,2).
point(7,2).
point(9,2).
point(10,2).
point(2,3).
point(3,3).
point(4,3).
point(7,3).
point(8,3).
point(9,3).
point(10,3).
point(1,4).
point(3,4).
point(6,4).
point(7,4).
point(9,4).
point(1,5).
point(3,5).
point(6,5).
point(7,5).
point(2,6).
point(3,6).
point(4,6).
point(5,6).
point(8,6).
point(9,6).
point(1,7).
point(2,7).
point(3,7).
point(4,7).
point(5,7).
point(7,7).
point(8,7).
point(9,7).
point(10,7).
point(4,8).
point(5,8).
point(7,8).
point(9,8).
point(10,8).
point(1,9).
point(3,9).
point(5,9).
point(8,9).
point(3,10).
point(4,10).
point(8,10).
point(9,10).
point(11,0).
point(11,6).
point(11,8).
point(11,11).
point(0,3).
point(0,4).
point(0,6).
point(0,7).
point(0,11).
point(0,0).
